Pt  O  C 
 1.0000000000000000
     5.5479598051896524    0.0000000000000000    0.0000000000000000
    -2.7739799025948257    4.8046741304692047    0.0000000000000000
     0.0000000000000000   -0.0000000000000000   22.2649451060309005
   8   1   1
Cartesian
  0.0000000000000000  0.0000000000000000 10.0000000000000000
 -1.3869899512974129  2.4023370652346023 10.0000000000000000
  1.3869899512974133  2.4023370652346023 10.0000000000000000
  2.7739799025948262  0.0000000000000000 10.0000000000000000
  2.7739799025948253  1.6015580434897347 12.2649451060309023
  1.3869899512974126  4.0038951087243371 12.2649451060309023
 -1.3869899512974140  4.0038951087243380 12.2649451060309023
 -0.0000000000000008  1.6015580434897350 12.2649451060309005
  0.0000000000000000  0.0000000000000000 13.7649451060309023
  0.0000000000000000  0.0000000000000000 12.6146051060309023
