&CONTROL
  calculation='relax',
  prefix='calc',
  pseudo_dir='/gpfs/pace1/project/chbe-medford/medford-share/data/pseudos/SSSP_eff_PBE',
  outdir='.',
  tprnfor=.true.,
/
&SYSTEM
  ibrav=0,
  celldm(1)=1.8897261245650618d0,
  nat=12,
  ntyp=1,
  ecutwfc=33.0743914118d0,
  ecutrho=330.743914118d0,
  nbnd=106,
  occupations='smearing',
  smearing='fd',
  degauss=0.00734986475817d0,
  input_dft='PBE',
/
&ELECTRONS
  diagonalization='cg',
  conv_thr=7.34986475817e-08,
  mixing_beta=0.05d0,
  mixing_mode='local-TF',
  electron_maxstep=1000,
  conv_thr=7.34986475817e-08,
/
&IONS
  ion_dynamics='ase3',
/
CELL_PARAMETERS
    5.547959805189652d0     0.000000000000000d0     0.000000000000000d0
   -2.773979902594826d0     4.804674130469205d0     0.000000000000000d0
    0.000000000000000d0    -0.000000000000000d0    14.529890212061805d0
ATOMIC_SPECIES
Pt1 195.08d0 Pt.UPF
ATOMIC_POSITIONS {crystal}
Pt1      0.000000000000000d0     0.000000000000000d0     0.344118222989002d0
Pt1      0.000000000000000d0     0.500000000000000d0     0.344118222989002d0
Pt1      0.500000000000000d0     0.500000000000000d0     0.344118222989002d0
Pt1      0.500000000000000d0     0.000000000000000d0     0.344118222989002d0
Pt1      0.666666666666667d0     0.333333333333333d0     0.500000000000000d0
Pt1      0.666666666666667d0     0.833333333333333d0     0.500000000000000d0
Pt1      0.166666666666667d0     0.833333333333333d0     0.500000000000000d0
Pt1      0.166666666666667d0     0.333333333333333d0     0.500000000000000d0
Pt1      0.333333333333334d0     0.666666666666667d0     0.655881777010998d0
Pt1      0.333333333333334d0     0.166666666666667d0     0.655881777010998d0
Pt1      0.833333333333334d0     0.166666666666667d0     0.655881777010998d0
Pt1      0.833333333333334d0     0.666666666666667d0     0.655881777010998d0
K_POINTS automatic
5 7 1 0 0 0
